p cnf 20 48
w 1 0.5
w 2 0.5
w 3 0.5
w 4 0.5
w 5 0.5
w 6 0.5
w 7 0.5
w 8 0.5
w 9 0.6224593312018545
w 10 0.6224593312018545
w 11 0.6224593312018545
w 12 0.6224593312018545
w 13 0.8032653298563167
w 14 0.8032653298563167
w 15 0.8032653298563167
w 16 0.8032653298563167
w 17 0.8032653298563167
w 18 0.8032653298563167
w 19 0.8032653298563167
w 20 0.8032653298563167
1 -2 -9 0
1 2 9 0
-1 2 -9 0
-1 -2 9 0
3 -4 -10 0
3 4 10 0
-3 4 -10 0
-3 -4 10 0
5 -6 -11 0
5 6 11 0
-5 6 -11 0
-5 -6 11 0
7 -8 -12 0
7 8 12 0
-7 8 -12 0
-7 -8 12 0
1 -3 -13 0
1 3 13 0
-1 3 -13 0
-1 -3 13 0
2 -4 -14 0
2 4 14 0
-2 4 -14 0
-2 -4 14 0
3 -5 -15 0
3 5 15 0
-3 5 -15 0
-3 -5 15 0
4 -6 -16 0
4 6 16 0
-4 6 -16 0
-4 -6 16 0
5 -7 -17 0
5 7 17 0
-5 7 -17 0
-5 -7 17 0
6 -8 -18 0
6 8 18 0
-6 8 -18 0
-6 -8 18 0
1 -7 -19 0
1 7 19 0
-1 7 -19 0
-1 -7 19 0
2 -8 -20 0
2 8 20 0
-2 8 -20 0
-2 -8 20 0